NAME : XML100_3321_22
DIMENSION : 101
NB_CLUSTERS : 4
CLUSTERING_ALG : KMedoids
CLUSTERING_PARAMS : k(3)
CLUSTERS
1 0
2 1 3 6 8 11 12 13 14 18 19 23 27 29 36 37 38 40 41 42 43 44 47 51 52 59 60 62 63 64 65 67 68 70 71 72 75 76 77 78 79 80 81 82 90 92 93 97 98 99
3 4 7 10 15 20 21 24 25 28 31 46 50 54 55 56 58 66 69 83 84 86 89 91 94 95
4 2 5 9 16 17 22 26 30 32 33 34 35 39 45 48 49 53 57 61 73 74 85 87 88 96 100
EOF